639, 0, 0, 75, 0
640, 0, 1, 68, 1
641, 0, 2, 51, 2
642, 0, 3, 77, 3
643, 1, 0, 69, 0
644, 1, 1, 87, 3
645, 1, 2, 35, 1
646, 1, 3, 37, 2
647, 2, 0, 57, 3
648, 2, 1, 36, 2
649, 2, 2, 77, 0
650, 2, 3, 74, 1
651, 3, 0, 33, 1
652, 3, 1, 62, 0
653, 3, 2, 43, 2
654, 3, 3, 44, 3
